SCIP version 5.0.0 [precision: 8 byte] [memory: block] [mode: optimized] [LP solver: NONE] [GitHash: 3bbd232]
Copyright (C) 2002-2017 Konrad-Zuse-Zentrum fuer Informationstechnik Berlin (ZIB)

External codes: 
  Readline EditLine w  GNU library for command line editing (gnu.org/s/readline)
  CppAD 20160000.1     Algorithmic Differentiation of C++ algorithms developed by B. Bell (www.coin-or.org/CppAD)
  ZLIB 1.2.5           General purpose compression library by J. Gailly and M. Adler (zlib.net)
  GMP 6.1.2            GNU Multiple Precision Arithmetic Library developed by T. Granlund (gmplib.org)

user parameter file <scip.set> not found - using default parameters

read problem <../../Split_data/output/seismic-bumps/8/0_sample_seismic-bumps.logreg>
============

File name	:	../../Split_data/output/seismic-bumps/8/0_sample_seismic-bumps.logreg
Problem name 	:	0_sample_seismic-bumps
Number of data	:	2068
Number of var	:	21
The given data has linear dependence
4 sets of column vector are linearly dependent:
{ 2 3}, { 4 5 6}, { 7 8}, { 13 14 15}, 

[dim=1] time: 0.035895
[dim=2] time: 0.071546
[dim=3] time: 0.102038
[dim=4] time: 0.135962
[dim=5] time: 0.168869
[dim=6] time: 0.194449
[dim=7] time: 0.213015
[dim=8] Time of forward = 0.228609sec.
AIC: 874.144
k: 7

[dim=17] time: 0.385375
[dim=16] time: 2.86306
[dim=15] time: 3.08297
[dim=14] time: 3.3907
[dim=13] time: 3.42929
[dim=12] time: 3.67703
[dim=11] time: 4.43988
[dim=10] Time of backward = 4.76378sec.
AIC: 872.424
k: 11
